Minimize
	value: tt

Subject to
tt + 1000 s_1_1 > 0.0
tt - t_1_1 - 1001.401072 s_1_1  + 0.700536 s_1_8  + 0.700536 s_1_7  > -999.010022
tt + 1000 s_2_1 > 0.0
tt - t_2_1 - 1001.452650 s_2_1  + 0.726325 s_2_8  + 0.726325 s_2_7  > -991.983431
tt + 1000 s_1_2 > 0.0
tt - t_1_2 - 1000.700536 s_1_2  + 0.700536 s_1_7  > -999.041789
tt + 1000 s_2_2 > 0.0
tt - t_2_2 - 1000.726325 s_2_2  + 0.726325 s_2_7  > -992.258030
tt + 1000 s_1_3 > 0.0
tt - t_1_3 - 1001.401072 s_1_3  + 0.700536 s_1_8  + 0.700536 s_1_7  > -999.909211
tt + 1000 s_2_3 > 0.0
tt - t_2_3 - 1001.452650 s_2_3  + 0.726325 s_2_8  + 0.726325 s_2_7  > -998.786569
tt + 1000 s_1_4 > 0.0
tt - t_1_4 - 1000.700536 s_1_4  + 0.700536 s_1_7  > -999.880878
tt + 1000 s_2_4 > 0.0
tt - t_2_4 - 1000.726325 s_2_4  + 0.726325 s_2_7  > -998.139839
tt + 1000 s_1_5 > 0.0
tt - t_1_5 - 1000.700536 s_1_5  + 0.700536 s_1_8  > -999.569056
tt + 1000 s_2_5 > 0.0
tt - t_2_5 - 1000.726325 s_2_5  + 0.726325 s_2_8  > -996.143716
tt + 1000 s_1_6 > 0.0
tt - t_1_6 - 1004.203216 s_1_6  + 0.700536 s_1_2  + 0.700536 s_1_3  + 0.700536 s_1_4  + 0.700536 s_1_7  + 0.700536 s_1_1  + 0.700536 s_1_5  > -999.928333
tt + 1000 s_2_6 > 0.0
tt - t_2_6 - 1004.357949 s_2_6  + 0.726325 s_2_2  + 0.726325 s_2_3  + 0.726325 s_2_4  + 0.726325 s_2_7  + 0.726325 s_2_1  + 0.726325 s_2_5  > -998.990400
tt + 1000 s_1_7 > 0.0
tt - t_1_7 - 1000.000000 s_1_7  > -998.223200
tt + 1000 s_2_7 > 0.0
tt - t_2_7 - 1000.000000 s_2_7  > -996.633194
tt + 1000 s_1_8 > 0.0
tt - t_1_8 - 1000.000000 s_1_8  > -998.369211
tt + 1000 s_2_8 > 0.0
tt - t_2_8 - 1000.000000 s_2_8  > -996.906000
s_1_1 + s_2_1 = 1
s_1_2 + s_2_2 = 1
s_1_3 + s_2_3 = 1
s_1_4 + s_2_4 = 1
s_1_5 + s_2_5 = 1
s_1_6 + s_2_6 = 1
s_1_7 + s_2_7 = 1
s_1_8 + s_2_8 = 1
s_1_1 + s_1_2 + 1000 r_1_1_2 >= 2
- s_1_1 - s_1_2 - 1000 r_1_1_2 >= -1001
t_1_1 - t_1_2 - 1000.000000 u_1_1_2 - 0.700536 s_1_2  + 0.700536 s_1_7  + 2000.000000 r_1_1_2 > -999.041789
s_2_1 + s_2_2 + 1000 r_2_1_2 >= 2
- s_2_1 - s_2_2 - 1000 r_2_1_2 >= -1001
t_2_1 - t_2_2 - 1000.000000 u_2_1_2 - 0.726325 s_2_2  + 0.726325 s_2_7  + 2000.000000 r_2_1_2 > -992.258030
s_1_1 + s_1_3 + 1000 r_1_1_3 >= 2
- s_1_1 - s_1_3 - 1000 r_1_1_3 >= -1001
t_1_1 - t_1_3 - 1000.000000 u_1_1_3 - 1.401072 s_1_3  + 0.700536 s_1_8  + 0.700536 s_1_7  + 2000.000000 r_1_1_3 > -999.909211
s_2_1 + s_2_3 + 1000 r_2_1_3 >= 2
- s_2_1 - s_2_3 - 1000 r_2_1_3 >= -1001
t_2_1 - t_2_3 - 1000.000000 u_2_1_3 - 1.452650 s_2_3  + 0.726325 s_2_8  + 0.726325 s_2_7  + 2000.000000 r_2_1_3 > -998.786569
s_1_1 + s_1_4 + 1000 r_1_1_4 >= 2
- s_1_1 - s_1_4 - 1000 r_1_1_4 >= -1001
t_1_1 - t_1_4 - 1000.000000 u_1_1_4 - 0.700536 s_1_4  + 0.700536 s_1_7  + 2000.000000 r_1_1_4 > -999.880878
s_2_1 + s_2_4 + 1000 r_2_1_4 >= 2
- s_2_1 - s_2_4 - 1000 r_2_1_4 >= -1001
t_2_1 - t_2_4 - 1000.000000 u_2_1_4 - 0.726325 s_2_4  + 0.726325 s_2_7  + 2000.000000 r_2_1_4 > -998.139839
s_1_1 + s_1_5 + 1000 r_1_1_5 >= 2
- s_1_1 - s_1_5 - 1000 r_1_1_5 >= -1001
t_1_1 - t_1_5 - 1000.000000 u_1_1_5 - 0.700536 s_1_5  + 0.700536 s_1_8  + 2000.000000 r_1_1_5 > -999.569056
s_2_1 + s_2_5 + 1000 r_2_1_5 >= 2
- s_2_1 - s_2_5 - 1000 r_2_1_5 >= -1001
t_2_1 - t_2_5 - 1000.000000 u_2_1_5 - 0.726325 s_2_5  + 0.726325 s_2_8  + 2000.000000 r_2_1_5 > -996.143716
t_1_6 - t_1_1 - 1001.401072 s_1_1  + 0.700536 s_1_8  + 0.700536 s_1_7  > -999.010022
t_1_6 - t_2_1 - 1001.452650 s_2_1  + 0.726325 s_2_8  + 0.726325 s_2_7  > -991.983431
t_2_6 - t_1_1 - 1001.401072 s_1_1  + 0.700536 s_1_8  + 0.700536 s_1_7  > -999.010022
t_2_6 - t_2_1 - 1001.452650 s_2_1  + 0.726325 s_2_8  + 0.726325 s_2_7  > -991.983431
t_1_1 - t_1_7 - 1000.000000 s_1_7  > -998.223200
t_1_1 - t_2_7 - 1000.000000 s_2_7  > -996.633194
t_2_1 - t_1_7 - 1000.000000 s_1_7  > -998.223200
t_2_1 - t_2_7 - 1000.000000 s_2_7  > -996.633194
t_1_1 - t_1_8 - 1000.000000 s_1_8  > -998.369211
t_1_1 - t_2_8 - 1000.000000 s_2_8  > -996.906000
t_2_1 - t_1_8 - 1000.000000 s_1_8  > -998.369211
t_2_1 - t_2_8 - 1000.000000 s_2_8  > -996.906000
s_1_2 + s_1_1 + 1000 r_1_1_2 >= 2
- s_1_2 - s_1_1 - 1000 r_1_1_2 >= -1001
t_1_2 - t_1_1 + 1000.000000 u_1_1_2 - 1.401072 s_1_1  + 0.700536 s_1_8  + 0.700536 s_1_7  + 2000.000000 r_1_1_2 > 0.989978
s_2_2 + s_2_1 + 1000 r_2_1_2 >= 2
- s_2_2 - s_2_1 - 1000 r_2_1_2 >= -1001
t_2_2 - t_2_1 + 1000.000000 u_2_1_2 - 1.452650 s_2_1  + 0.726325 s_2_8  + 0.726325 s_2_7  + 2000.000000 r_2_1_2 > 8.016569
s_1_2 + s_1_3 + 1000 r_1_2_3 >= 2
- s_1_2 - s_1_3 - 1000 r_1_2_3 >= -1001
t_1_2 - t_1_3 - 1000.000000 u_1_2_3 - 1.401072 s_1_3  + 0.700536 s_1_8  + 0.700536 s_1_7  + 2000.000000 r_1_2_3 > -999.909211
s_2_2 + s_2_3 + 1000 r_2_2_3 >= 2
- s_2_2 - s_2_3 - 1000 r_2_2_3 >= -1001
t_2_2 - t_2_3 - 1000.000000 u_2_2_3 - 1.452650 s_2_3  + 0.726325 s_2_8  + 0.726325 s_2_7  + 2000.000000 r_2_2_3 > -998.786569
s_1_2 + s_1_4 + 1000 r_1_2_4 >= 2
- s_1_2 - s_1_4 - 1000 r_1_2_4 >= -1001
t_1_2 - t_1_4 - 1000.000000 u_1_2_4 - 0.700536 s_1_4  + 0.700536 s_1_7  + 2000.000000 r_1_2_4 > -999.880878
s_2_2 + s_2_4 + 1000 r_2_2_4 >= 2
- s_2_2 - s_2_4 - 1000 r_2_2_4 >= -1001
t_2_2 - t_2_4 - 1000.000000 u_2_2_4 - 0.726325 s_2_4  + 0.726325 s_2_7  + 2000.000000 r_2_2_4 > -998.139839
s_1_2 + s_1_5 + 1000 r_1_2_5 >= 2
- s_1_2 - s_1_5 - 1000 r_1_2_5 >= -1001
t_1_2 - t_1_5 - 1000.000000 u_1_2_5 - 0.700536 s_1_5  + 0.700536 s_1_8  + 2000.000000 r_1_2_5 > -999.569056
s_2_2 + s_2_5 + 1000 r_2_2_5 >= 2
- s_2_2 - s_2_5 - 1000 r_2_2_5 >= -1001
t_2_2 - t_2_5 - 1000.000000 u_2_2_5 - 0.726325 s_2_5  + 0.726325 s_2_8  + 2000.000000 r_2_2_5 > -996.143716
t_1_6 - t_1_2 - 1000.700536 s_1_2  + 0.700536 s_1_7  > -999.041789
t_1_6 - t_2_2 - 1000.726325 s_2_2  + 0.726325 s_2_7  > -992.258030
t_2_6 - t_1_2 - 1000.700536 s_1_2  + 0.700536 s_1_7  > -999.041789
t_2_6 - t_2_2 - 1000.726325 s_2_2  + 0.726325 s_2_7  > -992.258030
t_1_2 - t_1_7 - 1000.000000 s_1_7  > -998.223200
t_1_2 - t_2_7 - 1000.000000 s_2_7  > -996.633194
t_2_2 - t_1_7 - 1000.000000 s_1_7  > -998.223200
t_2_2 - t_2_7 - 1000.000000 s_2_7  > -996.633194
s_1_2 + s_1_8 + 1000 r_1_2_8 >= 2
- s_1_2 - s_1_8 - 1000 r_1_2_8 >= -1001
t_1_2 - t_1_8 - 1000.000000 u_1_2_8 - 0.000000 s_1_8  + 2000.000000 r_1_2_8 > -998.369211
s_2_2 + s_2_8 + 1000 r_2_2_8 >= 2
- s_2_2 - s_2_8 - 1000 r_2_2_8 >= -1001
t_2_2 - t_2_8 - 1000.000000 u_2_2_8 - 0.000000 s_2_8  + 2000.000000 r_2_2_8 > -996.906000
s_1_3 + s_1_1 + 1000 r_1_1_3 >= 2
- s_1_3 - s_1_1 - 1000 r_1_1_3 >= -1001
t_1_3 - t_1_1 + 1000.000000 u_1_1_3 - 1.401072 s_1_1  + 0.700536 s_1_8  + 0.700536 s_1_7  + 2000.000000 r_1_1_3 > 0.989978
s_2_3 + s_2_1 + 1000 r_2_1_3 >= 2
- s_2_3 - s_2_1 - 1000 r_2_1_3 >= -1001
t_2_3 - t_2_1 + 1000.000000 u_2_1_3 - 1.452650 s_2_1  + 0.726325 s_2_8  + 0.726325 s_2_7  + 2000.000000 r_2_1_3 > 8.016569
s_1_3 + s_1_2 + 1000 r_1_2_3 >= 2
- s_1_3 - s_1_2 - 1000 r_1_2_3 >= -1001
t_1_3 - t_1_2 + 1000.000000 u_1_2_3 - 0.700536 s_1_2  + 0.700536 s_1_7  + 2000.000000 r_1_2_3 > 0.958211
s_2_3 + s_2_2 + 1000 r_2_2_3 >= 2
- s_2_3 - s_2_2 - 1000 r_2_2_3 >= -1001
t_2_3 - t_2_2 + 1000.000000 u_2_2_3 - 0.726325 s_2_2  + 0.726325 s_2_7  + 2000.000000 r_2_2_3 > 7.741970
s_1_3 + s_1_4 + 1000 r_1_3_4 >= 2
- s_1_3 - s_1_4 - 1000 r_1_3_4 >= -1001
t_1_3 - t_1_4 - 1000.000000 u_1_3_4 - 0.700536 s_1_4  + 0.700536 s_1_7  + 2000.000000 r_1_3_4 > -999.880878
s_2_3 + s_2_4 + 1000 r_2_3_4 >= 2
- s_2_3 - s_2_4 - 1000 r_2_3_4 >= -1001
t_2_3 - t_2_4 - 1000.000000 u_2_3_4 - 0.726325 s_2_4  + 0.726325 s_2_7  + 2000.000000 r_2_3_4 > -998.139839
s_1_3 + s_1_5 + 1000 r_1_3_5 >= 2
- s_1_3 - s_1_5 - 1000 r_1_3_5 >= -1001
t_1_3 - t_1_5 - 1000.000000 u_1_3_5 - 0.700536 s_1_5  + 0.700536 s_1_8  + 2000.000000 r_1_3_5 > -999.569056
s_2_3 + s_2_5 + 1000 r_2_3_5 >= 2
- s_2_3 - s_2_5 - 1000 r_2_3_5 >= -1001
t_2_3 - t_2_5 - 1000.000000 u_2_3_5 - 0.726325 s_2_5  + 0.726325 s_2_8  + 2000.000000 r_2_3_5 > -996.143716
t_1_6 - t_1_3 - 1001.401072 s_1_3  + 0.700536 s_1_8  + 0.700536 s_1_7  > -999.909211
t_1_6 - t_2_3 - 1001.452650 s_2_3  + 0.726325 s_2_8  + 0.726325 s_2_7  > -998.786569
t_2_6 - t_1_3 - 1001.401072 s_1_3  + 0.700536 s_1_8  + 0.700536 s_1_7  > -999.909211
t_2_6 - t_2_3 - 1001.452650 s_2_3  + 0.726325 s_2_8  + 0.726325 s_2_7  > -998.786569
t_1_3 - t_1_7 - 1000.000000 s_1_7  > -998.223200
t_1_3 - t_2_7 - 1000.000000 s_2_7  > -996.633194
t_2_3 - t_1_7 - 1000.000000 s_1_7  > -998.223200
t_2_3 - t_2_7 - 1000.000000 s_2_7  > -996.633194
t_1_3 - t_1_8 - 1000.000000 s_1_8  > -998.369211
t_1_3 - t_2_8 - 1000.000000 s_2_8  > -996.906000
t_2_3 - t_1_8 - 1000.000000 s_1_8  > -998.369211
t_2_3 - t_2_8 - 1000.000000 s_2_8  > -996.906000
s_1_4 + s_1_1 + 1000 r_1_1_4 >= 2
- s_1_4 - s_1_1 - 1000 r_1_1_4 >= -1001
t_1_4 - t_1_1 + 1000.000000 u_1_1_4 - 1.401072 s_1_1  + 0.700536 s_1_8  + 0.700536 s_1_7  + 2000.000000 r_1_1_4 > 0.989978
s_2_4 + s_2_1 + 1000 r_2_1_4 >= 2
- s_2_4 - s_2_1 - 1000 r_2_1_4 >= -1001
t_2_4 - t_2_1 + 1000.000000 u_2_1_4 - 1.452650 s_2_1  + 0.726325 s_2_8  + 0.726325 s_2_7  + 2000.000000 r_2_1_4 > 8.016569
s_1_4 + s_1_2 + 1000 r_1_2_4 >= 2
- s_1_4 - s_1_2 - 1000 r_1_2_4 >= -1001
t_1_4 - t_1_2 + 1000.000000 u_1_2_4 - 0.700536 s_1_2  + 0.700536 s_1_7  + 2000.000000 r_1_2_4 > 0.958211
s_2_4 + s_2_2 + 1000 r_2_2_4 >= 2
- s_2_4 - s_2_2 - 1000 r_2_2_4 >= -1001
t_2_4 - t_2_2 + 1000.000000 u_2_2_4 - 0.726325 s_2_2  + 0.726325 s_2_7  + 2000.000000 r_2_2_4 > 7.741970
s_1_4 + s_1_3 + 1000 r_1_3_4 >= 2
- s_1_4 - s_1_3 - 1000 r_1_3_4 >= -1001
t_1_4 - t_1_3 + 1000.000000 u_1_3_4 - 1.401072 s_1_3  + 0.700536 s_1_8  + 0.700536 s_1_7  + 2000.000000 r_1_3_4 > 0.090789
s_2_4 + s_2_3 + 1000 r_2_3_4 >= 2
- s_2_4 - s_2_3 - 1000 r_2_3_4 >= -1001
t_2_4 - t_2_3 + 1000.000000 u_2_3_4 - 1.452650 s_2_3  + 0.726325 s_2_8  + 0.726325 s_2_7  + 2000.000000 r_2_3_4 > 1.213431
s_1_4 + s_1_5 + 1000 r_1_4_5 >= 2
- s_1_4 - s_1_5 - 1000 r_1_4_5 >= -1001
t_1_4 - t_1_5 - 1000.000000 u_1_4_5 - 0.700536 s_1_5  + 0.700536 s_1_8  + 2000.000000 r_1_4_5 > -999.569056
s_2_4 + s_2_5 + 1000 r_2_4_5 >= 2
- s_2_4 - s_2_5 - 1000 r_2_4_5 >= -1001
t_2_4 - t_2_5 - 1000.000000 u_2_4_5 - 0.726325 s_2_5  + 0.726325 s_2_8  + 2000.000000 r_2_4_5 > -996.143716
t_1_6 - t_1_4 - 1000.700536 s_1_4  + 0.700536 s_1_7  > -999.880878
t_1_6 - t_2_4 - 1000.726325 s_2_4  + 0.726325 s_2_7  > -998.139839
t_2_6 - t_1_4 - 1000.700536 s_1_4  + 0.700536 s_1_7  > -999.880878
t_2_6 - t_2_4 - 1000.726325 s_2_4  + 0.726325 s_2_7  > -998.139839
t_1_4 - t_1_7 - 1000.000000 s_1_7  > -998.223200
t_1_4 - t_2_7 - 1000.000000 s_2_7  > -996.633194
t_2_4 - t_1_7 - 1000.000000 s_1_7  > -998.223200
t_2_4 - t_2_7 - 1000.000000 s_2_7  > -996.633194
s_1_4 + s_1_8 + 1000 r_1_4_8 >= 2
- s_1_4 - s_1_8 - 1000 r_1_4_8 >= -1001
t_1_4 - t_1_8 - 1000.000000 u_1_4_8 - 0.000000 s_1_8  + 2000.000000 r_1_4_8 > -998.369211
s_2_4 + s_2_8 + 1000 r_2_4_8 >= 2
- s_2_4 - s_2_8 - 1000 r_2_4_8 >= -1001
t_2_4 - t_2_8 - 1000.000000 u_2_4_8 - 0.000000 s_2_8  + 2000.000000 r_2_4_8 > -996.906000
s_1_5 + s_1_1 + 1000 r_1_1_5 >= 2
- s_1_5 - s_1_1 - 1000 r_1_1_5 >= -1001
t_1_5 - t_1_1 + 1000.000000 u_1_1_5 - 1.401072 s_1_1  + 0.700536 s_1_8  + 0.700536 s_1_7  + 2000.000000 r_1_1_5 > 0.989978
s_2_5 + s_2_1 + 1000 r_2_1_5 >= 2
- s_2_5 - s_2_1 - 1000 r_2_1_5 >= -1001
t_2_5 - t_2_1 + 1000.000000 u_2_1_5 - 1.452650 s_2_1  + 0.726325 s_2_8  + 0.726325 s_2_7  + 2000.000000 r_2_1_5 > 8.016569
s_1_5 + s_1_2 + 1000 r_1_2_5 >= 2
- s_1_5 - s_1_2 - 1000 r_1_2_5 >= -1001
t_1_5 - t_1_2 + 1000.000000 u_1_2_5 - 0.700536 s_1_2  + 0.700536 s_1_7  + 2000.000000 r_1_2_5 > 0.958211
s_2_5 + s_2_2 + 1000 r_2_2_5 >= 2
- s_2_5 - s_2_2 - 1000 r_2_2_5 >= -1001
t_2_5 - t_2_2 + 1000.000000 u_2_2_5 - 0.726325 s_2_2  + 0.726325 s_2_7  + 2000.000000 r_2_2_5 > 7.741970
s_1_5 + s_1_3 + 1000 r_1_3_5 >= 2
- s_1_5 - s_1_3 - 1000 r_1_3_5 >= -1001
t_1_5 - t_1_3 + 1000.000000 u_1_3_5 - 1.401072 s_1_3  + 0.700536 s_1_8  + 0.700536 s_1_7  + 2000.000000 r_1_3_5 > 0.090789
s_2_5 + s_2_3 + 1000 r_2_3_5 >= 2
- s_2_5 - s_2_3 - 1000 r_2_3_5 >= -1001
t_2_5 - t_2_3 + 1000.000000 u_2_3_5 - 1.452650 s_2_3  + 0.726325 s_2_8  + 0.726325 s_2_7  + 2000.000000 r_2_3_5 > 1.213431
s_1_5 + s_1_4 + 1000 r_1_4_5 >= 2
- s_1_5 - s_1_4 - 1000 r_1_4_5 >= -1001
t_1_5 - t_1_4 + 1000.000000 u_1_4_5 - 0.700536 s_1_4  + 0.700536 s_1_7  + 2000.000000 r_1_4_5 > 0.119122
s_2_5 + s_2_4 + 1000 r_2_4_5 >= 2
- s_2_5 - s_2_4 - 1000 r_2_4_5 >= -1001
t_2_5 - t_2_4 + 1000.000000 u_2_4_5 - 0.726325 s_2_4  + 0.726325 s_2_7  + 2000.000000 r_2_4_5 > 1.860161
t_1_6 - t_1_5 - 1000.700536 s_1_5  + 0.700536 s_1_8  > -999.569056
t_1_6 - t_2_5 - 1000.726325 s_2_5  + 0.726325 s_2_8  > -996.143716
t_2_6 - t_1_5 - 1000.700536 s_1_5  + 0.700536 s_1_8  > -999.569056
t_2_6 - t_2_5 - 1000.726325 s_2_5  + 0.726325 s_2_8  > -996.143716
s_1_5 + s_1_7 + 1000 r_1_5_7 >= 2
- s_1_5 - s_1_7 - 1000 r_1_5_7 >= -1001
t_1_5 - t_1_7 - 1000.000000 u_1_5_7 - 0.000000 s_1_7  + 2000.000000 r_1_5_7 > -998.223200
s_2_5 + s_2_7 + 1000 r_2_5_7 >= 2
- s_2_5 - s_2_7 - 1000 r_2_5_7 >= -1001
t_2_5 - t_2_7 - 1000.000000 u_2_5_7 - 0.000000 s_2_7  + 2000.000000 r_2_5_7 > -996.633194
t_1_5 - t_1_8 - 1000.000000 s_1_8  > -998.369211
t_1_5 - t_2_8 - 1000.000000 s_2_8  > -996.906000
t_2_5 - t_1_8 - 1000.000000 s_1_8  > -998.369211
t_2_5 - t_2_8 - 1000.000000 s_2_8  > -996.906000
t_1_6 - t_1_7 - 1000.000000 s_1_7  > -998.223200
t_1_6 - t_2_7 - 1000.000000 s_2_7  > -996.633194
t_2_6 - t_1_7 - 1000.000000 s_1_7  > -998.223200
t_2_6 - t_2_7 - 1000.000000 s_2_7  > -996.633194
s_1_7 + s_1_5 + 1000 r_1_5_7 >= 2
- s_1_7 - s_1_5 - 1000 r_1_5_7 >= -1001
t_1_7 - t_1_5 + 1000.000000 u_1_5_7 - 0.700536 s_1_5  + 0.700536 s_1_8  + 2000.000000 r_1_5_7 > 0.430944
s_2_7 + s_2_5 + 1000 r_2_5_7 >= 2
- s_2_7 - s_2_5 - 1000 r_2_5_7 >= -1001
t_2_7 - t_2_5 + 1000.000000 u_2_5_7 - 0.726325 s_2_5  + 0.726325 s_2_8  + 2000.000000 r_2_5_7 > 3.856284
s_1_7 + s_1_8 + 1000 r_1_7_8 >= 2
- s_1_7 - s_1_8 - 1000 r_1_7_8 >= -1001
t_1_7 - t_1_8 - 1000.000000 u_1_7_8 - 0.000000 s_1_8  + 2000.000000 r_1_7_8 > -998.369211
s_2_7 + s_2_8 + 1000 r_2_7_8 >= 2
- s_2_7 - s_2_8 - 1000 r_2_7_8 >= -1001
t_2_7 - t_2_8 - 1000.000000 u_2_7_8 - 0.000000 s_2_8  + 2000.000000 r_2_7_8 > -996.906000
s_1_8 + s_1_2 + 1000 r_1_2_8 >= 2
- s_1_8 - s_1_2 - 1000 r_1_2_8 >= -1001
t_1_8 - t_1_2 + 1000.000000 u_1_2_8 - 0.700536 s_1_2  + 0.700536 s_1_7  + 2000.000000 r_1_2_8 > 0.958211
s_2_8 + s_2_2 + 1000 r_2_2_8 >= 2
- s_2_8 - s_2_2 - 1000 r_2_2_8 >= -1001
t_2_8 - t_2_2 + 1000.000000 u_2_2_8 - 0.726325 s_2_2  + 0.726325 s_2_7  + 2000.000000 r_2_2_8 > 7.741970
s_1_8 + s_1_4 + 1000 r_1_4_8 >= 2
- s_1_8 - s_1_4 - 1000 r_1_4_8 >= -1001
t_1_8 - t_1_4 + 1000.000000 u_1_4_8 - 0.700536 s_1_4  + 0.700536 s_1_7  + 2000.000000 r_1_4_8 > 0.119122
s_2_8 + s_2_4 + 1000 r_2_4_8 >= 2
- s_2_8 - s_2_4 - 1000 r_2_4_8 >= -1001
t_2_8 - t_2_4 + 1000.000000 u_2_4_8 - 0.726325 s_2_4  + 0.726325 s_2_7  + 2000.000000 r_2_4_8 > 1.860161
s_1_8 + s_1_7 + 1000 r_1_7_8 >= 2
- s_1_8 - s_1_7 - 1000 r_1_7_8 >= -1001
t_1_8 - t_1_7 + 1000.000000 u_1_7_8 - 0.000000 s_1_7  + 2000.000000 r_1_7_8 > 1.776800
s_2_8 + s_2_7 + 1000 r_2_7_8 >= 2
- s_2_8 - s_2_7 - 1000 r_2_7_8 >= -1001
t_2_8 - t_2_7 + 1000.000000 u_2_7_8 - 0.000000 s_2_7  + 2000.000000 r_2_7_8 > 3.366806
Binary
s_1_1
s_2_1
s_1_2
s_2_2
s_1_3
s_2_3
s_1_4
s_2_4
s_1_5
s_2_5
s_1_6
s_2_6
s_1_7
s_2_7
s_1_8
s_2_8
u_1_1_2
r_1_1_2
u_2_1_2
r_2_1_2
u_1_1_3
r_1_1_3
u_2_1_3
r_2_1_3
u_1_1_4
r_1_1_4
u_2_1_4
r_2_1_4
u_1_1_5
r_1_1_5
u_2_1_5
r_2_1_5
u_1_2_3
r_1_2_3
u_2_2_3
r_2_2_3
u_1_2_4
r_1_2_4
u_2_2_4
r_2_2_4
u_1_2_5
r_1_2_5
u_2_2_5
r_2_2_5
u_1_2_8
r_1_2_8
u_2_2_8
r_2_2_8
u_1_3_4
r_1_3_4
u_2_3_4
r_2_3_4
u_1_3_5
r_1_3_5
u_2_3_5
r_2_3_5
u_1_4_5
r_1_4_5
u_2_4_5
r_2_4_5
u_1_4_8
r_1_4_8
u_2_4_8
r_2_4_8
u_1_5_7
r_1_5_7
u_2_5_7
r_2_5_7
u_1_7_8
r_1_7_8
u_2_7_8
r_2_7_8

End
